(set-option :produce-models true); benchmark generated from python API
(set-info :status unknown)
(declare-fun _a_1_ () Real)
(declare-fun l_1_0_42 () Real)
(declare-fun l_1_0_41 () Real)
(declare-fun l_1_0_40 () Real)
(declare-fun l_1_0_39 () Real)
(declare-fun l_1_0_38 () Real)
(declare-fun l_1_0_37 () Real)
(declare-fun l_1_0_36 () Real)
(declare-fun l_1_0_25 () Real)
(declare-fun l_1_0_15 () Real)
(declare-fun _a_0_ () Real)
(declare-fun _a_3_ () Real)
(declare-fun l_1_0_9 () Real)
(declare-fun l_1_0_8 () Real)
(declare-fun l_1_0_7 () Real)
(declare-fun l_1_0_6 () Real)
(declare-fun l_1_0_5 () Real)
(declare-fun l_1_0_4 () Real)
(declare-fun l_1_0_3 () Real)
(declare-fun l_1_0_2 () Real)
(declare-fun l_1_0_14 () Real)
(declare-fun l_1_0_13 () Real)
(declare-fun l_1_0_12 () Real)
(declare-fun l_1_0_11 () Real)
(declare-fun l_1_0_10 () Real)
(declare-fun l_1_0_1 () Real)
(declare-fun _a_2_ () Real)
(declare-fun l_1_0_29 () Real)
(declare-fun l_1_0_28 () Real)
(declare-fun l_1_0_27 () Real)
(declare-fun l_1_0_26 () Real)
(declare-fun l_1_0_16 () Real)
(declare-fun l_1_0_18 () Real)
(declare-fun l_1_0_17 () Real)
(declare-fun l_1_0_21 () Real)
(declare-fun l_1_0_19 () Real)
(declare-fun l_1_0_60 () Real)
(declare-fun l_1_0_20 () Real)
(declare-fun l_1_0_30 () Real)
(declare-fun l_1_0_43 () Real)
(declare-fun l_1_0_51 () Real)
(declare-fun l_1_0_22 () Real)
(declare-fun l_1_0_49 () Real)
(declare-fun l_1_0_48 () Real)
(declare-fun l_1_0_47 () Real)
(declare-fun l_1_0_46 () Real)
(declare-fun l_1_0_45 () Real)
(declare-fun l_1_0_44 () Real)
(declare-fun l_1_0_62 () Real)
(declare-fun l_1_0_61 () Real)
(declare-fun l_1_0_31 () Real)
(declare-fun l_1_0_24 () Real)
(declare-fun l_1_0_23 () Real)
(declare-fun l_1_0_66 () Real)
(declare-fun l_1_0_65 () Real)
(declare-fun l_1_0_64 () Real)
(declare-fun l_1_0_63 () Real)
(declare-fun l_1_0_52 () Real)
(declare-fun l_1_0_57 () Real)
(declare-fun l_1_0_56 () Real)
(declare-fun l_1_0_55 () Real)
(declare-fun l_1_0_54 () Real)
(declare-fun l_1_0_53 () Real)
(declare-fun l_1_0_32 () Real)
(declare-fun l_1_0_35 () Real)
(declare-fun l_1_0_34 () Real)
(declare-fun l_1_0_33 () Real)
(declare-fun l_1_0_50 () Real)
(declare-fun l_1_0_69 () Real)
(declare-fun l_1_0_68 () Real)
(declare-fun l_1_0_67 () Real)
(declare-fun l_1_0_59 () Real)
(declare-fun l_1_0_58 () Real)
(assert
 (let ((?x5485 (* 100.0 (* (- (* (/ 1.0 10.0) _a_1_) 1.0) (- (* (/ 1.0 10.0) _a_1_) 1.0)))))
 (let ((?x121 (* l_1_0_42 l_1_0_42)))
 (let ((?x124 (* l_1_0_41 l_1_0_41)))
 (let ((?x128 (* l_1_0_40 l_1_0_40)))
 (let ((?x133 (* l_1_0_39 l_1_0_39)))
 (let ((?x139 (* l_1_0_38 l_1_0_38)))
 (let ((?x146 (* l_1_0_37 l_1_0_37)))
 (let ((?x154 (* l_1_0_36 l_1_0_36)))
 (let ((?x5493 (- (- (- (* 2.0 _a_0_) (* (* 2.0 l_1_0_15) l_1_0_25)) ?x154) ?x146)))
 (let ((?x5484 (- (+ (- (- (- (- (- ?x5493 ?x139) ?x133) ?x128) ?x124) ?x121) ?x5485) 9.0)))
 (= ?x5484 0.0))))))))))))
(assert
 (let ((?x5424 (+ (- (* (* 2.0 _a_0_) (- _a_1_ 10.0)) (* 9.0 _a_1_)) _a_3_)))
 (= (+ (- ?x5424 (* (* 2.0 l_1_0_15) l_1_0_36)) 90.0) 0.0)))
(assert
 (let ((?x112 (* 10000.0 l_1_0_9)))
 (let ((?x851 (* 100.0 l_1_0_8)))
 (let ((?x110 (* 100.0 l_1_0_5)))
 (let ((?x109 (* 10000.0 l_1_0_4)))
 (let ((?x5395 (* 100.0 l_1_0_3)))
 (let ((?x5394 (* 100.0 l_1_0_2)))
 (let ((?x5393 (* l_1_0_15 l_1_0_15)))
 (let ((?x603 (* 10000.0 l_1_0_13)))
 (let ((?x5414 (* 10000.0 l_1_0_12)))
 (let ((?x107 (* 100.0 l_1_0_11)))
 (let ((?x106 (* 100.0 l_1_0_1)))
 (let ((?x5412 (- (- (+ (+ (* (- 9.0) _a_0_) (* _a_0_ _a_0_)) _a_2_) ?x106) l_1_0_10)))
 (let ((?x5396 (- (- (- (- (- (- (- ?x5412 ?x107) ?x5414) ?x603) l_1_0_14) ?x5393) ?x5394) ?x5395)))
 (let ((?x860 (- (- (- (- (- (- ?x5396 ?x109) ?x110) l_1_0_6) l_1_0_7) ?x851) ?x112)))
 (= ?x860 0.0))))))))))))))))
(assert
 (let ((?x5295 (* l_1_0_29 l_1_0_29)))
 (let ((?x5294 (* l_1_0_28 l_1_0_28)))
 (let ((?x3112 (* l_1_0_27 l_1_0_27)))
 (let ((?x4437 (- (- (- (* (- l_1_0_25) l_1_0_25) (* l_1_0_26 l_1_0_26)) ?x3112) ?x5294)))
 (= (+ (- ?x4437 ?x5295) 1.0) 0.0))))))
(assert
 (let ((?x48 (- (- (* 2.0 _a_1_) (* (* 2.0 l_1_0_25) l_1_0_36)) (* (* 2.0 l_1_0_26) l_1_0_37))))
 (let ((?x50 (- (- ?x48 (* (* 2.0 l_1_0_27) l_1_0_38)) (* (* 2.0 l_1_0_28) l_1_0_39))))
 (= (- (- ?x50 (* (* 2.0 l_1_0_29) l_1_0_40)) 20.0) 0.0))))
(assert
 (let ((?x41 (* 100.0 l_1_0_9)))
 (let ((?x38 (* 100.0 l_1_0_13)))
 (let ((?x1034 (+ l_1_0_1 ?x38)))
 (let ((?x3295 (+ (+ (- ?x1034 (* (* 2.0 l_1_0_15) l_1_0_16)) l_1_0_3) (* 200.0 l_1_0_4))))
 (= (+ (+ ?x3295 l_1_0_5) ?x41) 0.0))))))
(assert
 (let ((?x41 (* 100.0 l_1_0_9)))
 (let ((?x5240 (- (+ (+ l_1_0_11 (* 200.0 l_1_0_12)) (* 100.0 l_1_0_13)) (* (* 2.0 l_1_0_15) l_1_0_18))))
 (= (+ (+ (+ ?x5240 l_1_0_2) l_1_0_8) ?x41) 0.0))))
(assert
 (let ((?x5253 (* l_1_0_17 l_1_0_17)))
 (let ((?x5254 (- (- (* (* (- 2.0) l_1_0_15) l_1_0_21) (* l_1_0_16 l_1_0_16)) ?x5253)))
 (= (- ?x5254 l_1_0_4) 0.0))))
(assert
 (let ((?x3287 (- (- (- l_1_0_13) (* (* 2.0 l_1_0_15) l_1_0_60)) (* (* 2.0 l_1_0_16) l_1_0_18))))
 (= (- (- ?x3287 (* (* 2.0 l_1_0_17) l_1_0_19)) l_1_0_9) 0.0)))
(assert
 (let ((?x5184 (* l_1_0_20 l_1_0_20)))
 (let ((?x4988 (* l_1_0_19 l_1_0_19)))
 (let ((?x5181 (* l_1_0_18 l_1_0_18)))
 (let ((?x5183 (- (- (- (- l_1_0_12) (* (* 2.0 l_1_0_15) l_1_0_30)) ?x5181) ?x4988)))
 (= (- ?x5183 ?x5184) 0.0))))))
(assert
 (let ((?x5201 (- (* (* (- 2.0) l_1_0_15) l_1_0_43) (* (* 2.0 l_1_0_16) l_1_0_36))))
 (= (- ?x5201 (* (* 2.0 l_1_0_17) l_1_0_37)) 0.0)))
(assert
 (let ((?x5144 (- (* (* (- 2.0) l_1_0_15) l_1_0_51) (* (* 2.0 l_1_0_18) l_1_0_36))))
 (let ((?x5150 (- (- ?x5144 (* (* 2.0 l_1_0_19) l_1_0_37)) (* (* 2.0 l_1_0_20) l_1_0_38))))
 (= ?x5150 0.0))))
(assert
 (let ((?x5058 (- (* (* (- 2.0) l_1_0_16) l_1_0_21) (* (* 2.0 l_1_0_17) l_1_0_22))))
 (= ?x5058 0.0)))
(assert
 (let ((?x2007 (- (* (* (- 2.0) l_1_0_16) l_1_0_25) (* (* 2.0 l_1_0_17) l_1_0_26))))
 (let ((?x2025 (- (- ?x2007 (* (* 2.0 l_1_0_36) l_1_0_43)) (* (* 2.0 l_1_0_37) l_1_0_44))))
 (let ((?x5076 (- (- ?x2025 (* (* 2.0 l_1_0_38) l_1_0_45)) (* (* 2.0 l_1_0_39) l_1_0_46))))
 (let ((?x5082 (- (- ?x5076 (* (* 2.0 l_1_0_40) l_1_0_47)) (* (* 2.0 l_1_0_41) l_1_0_48))))
 (= (- ?x5082 (* (* 2.0 l_1_0_42) l_1_0_49)) 0.0))))))
(assert
 (let ((?x4993 (- (* (* (- 2.0) l_1_0_16) l_1_0_30) (* (* 2.0 l_1_0_17) l_1_0_31))))
 (let ((?x4999 (- (- ?x4993 (* (* 2.0 l_1_0_18) l_1_0_60)) (* (* 2.0 l_1_0_19) l_1_0_61))))
 (= (- ?x4999 (* (* 2.0 l_1_0_20) l_1_0_62)) 0.0))))
(assert
 (let ((?x4946 (- (* (* (- 2.0) l_1_0_16) l_1_0_43) (* (* 2.0 l_1_0_17) l_1_0_44))))
 (let ((?x1049 (- (- ?x4946 (* (* 2.0 l_1_0_21) l_1_0_36)) (* (* 2.0 l_1_0_22) l_1_0_37))))
 (let ((?x1060 (- (- ?x1049 (* (* 2.0 l_1_0_23) l_1_0_38)) (* (* 2.0 l_1_0_24) l_1_0_39))))
 (= ?x1060 0.0)))))
(assert
 (let ((?x2917 (- (* (* (- 2.0) l_1_0_16) l_1_0_51) (* (* 2.0 l_1_0_17) l_1_0_52))))
 (let ((?x4909 (- (- ?x2917 (* (* 2.0 l_1_0_18) l_1_0_43)) (* (* 2.0 l_1_0_19) l_1_0_44))))
 (let ((?x67 (- (- ?x4909 (* (* 2.0 l_1_0_20) l_1_0_45)) (* (* 2.0 l_1_0_36) l_1_0_60))))
 (let ((?x4799 (- (- ?x67 (* (* 2.0 l_1_0_37) l_1_0_61)) (* (* 2.0 l_1_0_38) l_1_0_62))))
 (let ((?x4802 (- (- ?x4799 (* (* 2.0 l_1_0_39) l_1_0_63)) (* (* 2.0 l_1_0_40) l_1_0_64))))
 (let ((?x4805 (- (- ?x4802 (* (* 2.0 l_1_0_41) l_1_0_65)) (* (* 2.0 l_1_0_42) l_1_0_66))))
 (= ?x4805 0.0))))))))
(assert
 (let ((?x4848 (- (* (* (- 2.0) l_1_0_16) l_1_0_60) (* (* 2.0 l_1_0_17) l_1_0_61))))
 (let ((?x155 (- (- ?x4848 (* (* 2.0 l_1_0_18) l_1_0_21)) (* (* 2.0 l_1_0_19) l_1_0_22))))
 (= (- ?x155 (* (* 2.0 l_1_0_20) l_1_0_23)) 0.0))))
(assert
 (let ((?x4728 (- (* (* (- 2.0) l_1_0_18) l_1_0_25) (* (* 2.0 l_1_0_19) l_1_0_26))))
 (let ((?x4732 (- (- ?x4728 (* (* 2.0 l_1_0_20) l_1_0_27)) (* (* 2.0 l_1_0_36) l_1_0_51))))
 (let ((?x86 (- (- ?x4732 (* (* 2.0 l_1_0_37) l_1_0_52)) (* (* 2.0 l_1_0_38) l_1_0_53))))
 (let ((?x4738 (- (- ?x86 (* (* 2.0 l_1_0_39) l_1_0_54)) (* (* 2.0 l_1_0_40) l_1_0_55))))
 (let ((?x4742 (- (- ?x4738 (* (* 2.0 l_1_0_41) l_1_0_56)) (* (* 2.0 l_1_0_42) l_1_0_57))))
 (= ?x4742 0.0)))))))
(assert
 (let ((?x4467 (- (* (* (- 2.0) l_1_0_18) l_1_0_30) (* (* 2.0 l_1_0_19) l_1_0_31))))
 (= (- ?x4467 (* (* 2.0 l_1_0_20) l_1_0_32)) 0.0)))
(assert
 (let ((?x4486 (- (* (* (- 2.0) l_1_0_18) l_1_0_51) (* (* 2.0 l_1_0_19) l_1_0_52))))
 (let ((?x4491 (- (- ?x4486 (* (* 2.0 l_1_0_20) l_1_0_53)) (* (* 2.0 l_1_0_30) l_1_0_36))))
 (let ((?x4495 (- (- ?x4491 (* (* 2.0 l_1_0_31) l_1_0_37)) (* (* 2.0 l_1_0_32) l_1_0_38))))
 (let ((?x4499 (- (- ?x4495 (* (* 2.0 l_1_0_33) l_1_0_39)) (* (* 2.0 l_1_0_34) l_1_0_40))))
 (= (- ?x4499 (* (* 2.0 l_1_0_35) l_1_0_41)) 0.0))))))
(assert
 (let ((?x4560 (* l_1_0_24 l_1_0_24)))
 (let ((?x4558 (* l_1_0_23 l_1_0_23)))
 (let ((?x4561 (- (- (- (* (- l_1_0_21) l_1_0_21) (* l_1_0_22 l_1_0_22)) ?x4558) ?x4560)))
 (= ?x4561 0.0)))))
(assert
 (let ((?x197 (* l_1_0_50 l_1_0_50)))
 (let ((?x4326 (* l_1_0_49 l_1_0_49)))
 (let ((?x4324 (* l_1_0_48 l_1_0_48)))
 (let ((?x4322 (* l_1_0_47 l_1_0_47)))
 (let ((?x4320 (* l_1_0_46 l_1_0_46)))
 (let ((?x4318 (* l_1_0_45 l_1_0_45)))
 (let ((?x2786 (* l_1_0_44 l_1_0_44)))
 (let ((?x4585 (* l_1_0_43 l_1_0_43)))
 (let ((?x4580 (- (* (* (- 2.0) l_1_0_21) l_1_0_25) (* (* 2.0 l_1_0_22) l_1_0_26))))
 (let ((?x4584 (- (- ?x4580 (* (* 2.0 l_1_0_23) l_1_0_27)) (* (* 2.0 l_1_0_24) l_1_0_28))))
 (let ((?x4327 (- (- (- (- (- (- (- ?x4584 ?x4585) ?x2786) ?x4318) ?x4320) ?x4322) ?x4324) ?x4326)))
 (= (- ?x4327 ?x197) 0.0)))))))))))))
(assert
 (let ((?x4133 (* l_1_0_69 l_1_0_69)))
 (let ((?x643 (* l_1_0_68 l_1_0_68)))
 (let ((?x4131 (* l_1_0_67 l_1_0_67)))
 (let ((?x640 (* l_1_0_66 l_1_0_66)))
 (let ((?x4129 (* l_1_0_65 l_1_0_65)))
 (let ((?x637 (* l_1_0_64 l_1_0_64)))
 (let ((?x4127 (* l_1_0_63 l_1_0_63)))
 (let ((?x4125 (* l_1_0_62 l_1_0_62)))
 (let ((?x634 (* l_1_0_61 l_1_0_61)))
 (let ((?x4122 (* l_1_0_60 l_1_0_60)))
 (let ((?x4118 (- (* (* (- 2.0) l_1_0_21) l_1_0_30) (* (* 2.0 l_1_0_22) l_1_0_31))))
 (let ((?x631 (- (- ?x4118 (* (* 2.0 l_1_0_23) l_1_0_32)) (* (* 2.0 l_1_0_24) l_1_0_33))))
 (let ((?x4130 (- (- (- (- (- (- (- ?x631 ?x4122) ?x634) ?x4125) ?x4127) ?x637) ?x4129) ?x640)))
 (= (- (- (- ?x4130 ?x4131) ?x643) ?x4133) 0.0)))))))))))))))
(assert
 (let ((?x4171 (- (* (* (- 2.0) l_1_0_21) l_1_0_43) (* (* 2.0 l_1_0_22) l_1_0_44))))
 (let ((?x2979 (- (- ?x4171 (* (* 2.0 l_1_0_23) l_1_0_45)) (* (* 2.0 l_1_0_24) l_1_0_46))))
 (= ?x2979 0.0))))
(assert
 (let ((?x4192 (- (* (* (- 2.0) l_1_0_21) l_1_0_51) (* (* 2.0 l_1_0_22) l_1_0_52))))
 (let ((?x3797 (- (- ?x4192 (* (* 2.0 l_1_0_23) l_1_0_53)) (* (* 2.0 l_1_0_24) l_1_0_54))))
 (let ((?x3803 (- (- ?x3797 (* (* 2.0 l_1_0_43) l_1_0_60)) (* (* 2.0 l_1_0_44) l_1_0_61))))
 (let ((?x3809 (- (- ?x3803 (* (* 2.0 l_1_0_45) l_1_0_62)) (* (* 2.0 l_1_0_46) l_1_0_63))))
 (let ((?x3815 (- (- ?x3809 (* (* 2.0 l_1_0_47) l_1_0_64)) (* (* 2.0 l_1_0_48) l_1_0_65))))
 (let ((?x4213 (- (- ?x3815 (* (* 2.0 l_1_0_49) l_1_0_66)) (* (* 2.0 l_1_0_50) l_1_0_67))))
 (= ?x4213 0.0))))))))
(assert
 (let ((?x3936 (- (* (* (- 2.0) l_1_0_21) l_1_0_60) (* (* 2.0 l_1_0_22) l_1_0_61))))
 (let ((?x3940 (- (- ?x3936 (* (* 2.0 l_1_0_23) l_1_0_62)) (* (* 2.0 l_1_0_24) l_1_0_63))))
 (= ?x3940 0.0))))
(assert
 (let ((?x3735 (* l_1_0_59 l_1_0_59)))
 (let ((?x3733 (* l_1_0_58 l_1_0_58)))
 (let ((?x3731 (* l_1_0_57 l_1_0_57)))
 (let ((?x3729 (* l_1_0_56 l_1_0_56)))
 (let ((?x3727 (* l_1_0_55 l_1_0_55)))
 (let ((?x3725 (* l_1_0_54 l_1_0_54)))
 (let ((?x3723 (* l_1_0_53 l_1_0_53)))
 (let ((?x3721 (* l_1_0_52 l_1_0_52)))
 (let ((?x3719 (* l_1_0_51 l_1_0_51)))
 (let ((?x3971 (- (* (* (- 2.0) l_1_0_25) l_1_0_30) (* (* 2.0 l_1_0_26) l_1_0_31))))
 (let ((?x3716 (- (- ?x3971 (* (* 2.0 l_1_0_27) l_1_0_32)) (* (* 2.0 l_1_0_28) l_1_0_33))))
 (let ((?x3724 (- (- (- (- ?x3716 (* (* 2.0 l_1_0_29) l_1_0_34)) ?x3719) ?x3721) ?x3723)))
 (= (- (- (- (- (- (- ?x3724 ?x3725) ?x3727) ?x3729) ?x3731) ?x3733) ?x3735) 0.0))))))))))))))
(assert
 (let ((?x3796 (- (* (* (- 2.0) l_1_0_25) l_1_0_43) (* (* 2.0 l_1_0_26) l_1_0_44))))
 (let ((?x3802 (- (- ?x3796 (* (* 2.0 l_1_0_27) l_1_0_45)) (* (* 2.0 l_1_0_28) l_1_0_46))))
 (= (- ?x3802 (* (* 2.0 l_1_0_29) l_1_0_47)) 0.0))))
(assert
 (let ((?x3842 (- (* (* (- 2.0) l_1_0_25) l_1_0_51) (* (* 2.0 l_1_0_26) l_1_0_52))))
 (let ((?x3648 (- (- ?x3842 (* (* 2.0 l_1_0_27) l_1_0_53)) (* (* 2.0 l_1_0_28) l_1_0_54))))
 (= (- ?x3648 (* (* 2.0 l_1_0_29) l_1_0_55)) 0.0))))
(assert
 (let ((?x1599 (- (* (* (- 2.0) l_1_0_25) l_1_0_60) (* (* 2.0 l_1_0_26) l_1_0_61))))
 (let ((?x3674 (- (- ?x1599 (* (* 2.0 l_1_0_27) l_1_0_62)) (* (* 2.0 l_1_0_28) l_1_0_63))))
 (let ((?x3678 (- (- ?x3674 (* (* 2.0 l_1_0_29) l_1_0_64)) (* (* 2.0 l_1_0_43) l_1_0_51))))
 (let ((?x3682 (- (- ?x3678 (* (* 2.0 l_1_0_44) l_1_0_52)) (* (* 2.0 l_1_0_45) l_1_0_53))))
 (let ((?x3686 (- (- ?x3682 (* (* 2.0 l_1_0_46) l_1_0_54)) (* (* 2.0 l_1_0_47) l_1_0_55))))
 (let ((?x3417 (- (- ?x3686 (* (* 2.0 l_1_0_48) l_1_0_56)) (* (* 2.0 l_1_0_49) l_1_0_57))))
 (= (- ?x3417 (* (* 2.0 l_1_0_50) l_1_0_58)) 0.0))))))))
(assert
 (let ((?x3525 (* l_1_0_35 l_1_0_35)))
 (let ((?x3524 (* l_1_0_34 l_1_0_34)))
 (let ((?x3521 (* l_1_0_33 l_1_0_33)))
 (let ((?x3519 (* l_1_0_32 l_1_0_32)))
 (let ((?x3523 (- (- (- (* (- l_1_0_30) l_1_0_30) (* l_1_0_31 l_1_0_31)) ?x3519) ?x3521)))
 (= (- (- ?x3523 ?x3524) ?x3525) 0.0)))))))
(assert
 (let ((?x3343 (- (* (* (- 2.0) l_1_0_30) l_1_0_43) (* (* 2.0 l_1_0_31) l_1_0_44))))
 (let ((?x3347 (- (- ?x3343 (* (* 2.0 l_1_0_32) l_1_0_45)) (* (* 2.0 l_1_0_33) l_1_0_46))))
 (let ((?x3351 (- (- ?x3347 (* (* 2.0 l_1_0_34) l_1_0_47)) (* (* 2.0 l_1_0_35) l_1_0_48))))
 (let ((?x3357 (- (- ?x3351 (* (* 2.0 l_1_0_51) l_1_0_60)) (* (* 2.0 l_1_0_52) l_1_0_61))))
 (let ((?x3363 (- (- ?x3357 (* (* 2.0 l_1_0_53) l_1_0_62)) (* (* 2.0 l_1_0_54) l_1_0_63))))
 (let ((?x3369 (- (- ?x3363 (* (* 2.0 l_1_0_55) l_1_0_64)) (* (* 2.0 l_1_0_56) l_1_0_65))))
 (let ((?x3108 (- (- ?x3369 (* (* 2.0 l_1_0_57) l_1_0_66)) (* (* 2.0 l_1_0_58) l_1_0_67))))
 (= (- ?x3108 (* (* 2.0 l_1_0_59) l_1_0_68)) 0.0)))))))))
(assert
 (let ((?x3210 (- (* (* (- 2.0) l_1_0_30) l_1_0_51) (* (* 2.0 l_1_0_31) l_1_0_52))))
 (let ((?x3214 (- (- ?x3210 (* (* 2.0 l_1_0_32) l_1_0_53)) (* (* 2.0 l_1_0_33) l_1_0_54))))
 (let ((?x3218 (- (- ?x3214 (* (* 2.0 l_1_0_34) l_1_0_55)) (* (* 2.0 l_1_0_35) l_1_0_56))))
 (= ?x3218 0.0)))))
(assert
 (let ((?x2950 (- (* (* (- 2.0) l_1_0_30) l_1_0_60) (* (* 2.0 l_1_0_31) l_1_0_61))))
 (let ((?x2954 (- (- ?x2950 (* (* 2.0 l_1_0_32) l_1_0_62)) (* (* 2.0 l_1_0_33) l_1_0_63))))
 (let ((?x2958 (- (- ?x2954 (* (* 2.0 l_1_0_34) l_1_0_64)) (* (* 2.0 l_1_0_35) l_1_0_65))))
 (= ?x2958 0.0)))))
(assert
 (>= l_1_0_1 0.0))
(assert
 (>= l_1_0_2 0.0))
(assert
 (>= l_1_0_3 0.0))
(assert
 (>= l_1_0_4 0.0))
(assert
 (>= l_1_0_5 0.0))
(assert
 (>= l_1_0_6 0.0))
(assert
 (>= l_1_0_7 0.0))
(assert
 (>= l_1_0_8 0.0))
(assert
 (>= l_1_0_9 0.0))
(assert
 (>= l_1_0_10 0.0))
(assert
 (>= l_1_0_11 0.0))
(assert
 (>= l_1_0_12 0.0))
(assert
 (>= l_1_0_13 0.0))
(assert
 (>= l_1_0_14 0.0))
(assert
 (>= l_1_0_15 0.0))
(assert
 (>= l_1_0_17 0.0))
(assert
 (>= l_1_0_20 0.0))
(assert
 (>= l_1_0_24 0.0))
(assert
 (>= l_1_0_29 0.0))
(assert
 (>= l_1_0_35 0.0))
(assert
 (>= l_1_0_42 0.0))
(assert
 (>= l_1_0_50 0.0))
(assert
 (>= l_1_0_59 0.0))
(assert
 (>= l_1_0_69 0.0))
(check-sat)
(get-model)